(set-info :smt-lib-version 2.6)
(set-logic UF)
(set-info :source |
Generated by: Andrew Reynolds
Generated on: 2017-04-28
Generator: Sledgehammer, converted to v2.6 by CVC4
Application: Verfication goals in Isabelle
Target solver: CVC4, Z3
Publications: "A Decision Procedure for (Co)Datatypes" by Andrew Reynolds and Jasmin Blanchette, CADE 2015.
|)
(set-info :license "https://creativecommons.org/licenses/by/4.0/")
(set-info :category "industrial")
(set-info :status unsat)


(declare-sort A$ 0)
(declare-sort Nat$ 0)
(declare-sort A_set$ 0)
(declare-sort A_nat_fun$ 0)
(declare-sort A_bool_fun$ 0)
(declare-sort Nat_nat_fun$ 0)
(declare-sort A_a_tree_fun$ 0)
(declare-sort Nat_bool_fun$ 0)
(declare-sort A_a_bool_fun_fun$ 0)
(declare-sort Nat_nat_bool_fun_fun$ 0)
(declare-sort A_tree$ 0)
(declare-fun select$ (A_tree$) Nat$)
(declare-fun selecta$ (A_tree$) A$)
(declare-fun leaf$ (Nat$ A$) A_tree$)
(declare-fun selectb$ (A_tree$) Nat$)
(declare-fun selectc$ (A_tree$) A_tree$)
(declare-fun selectd$ (A_tree$) A_tree$)
(declare-fun innerNode$ (Nat$ A_tree$ A_tree$) A_tree$)
(declare-fun a$ () A$)
(declare-fun b$ () A$)
(declare-fun c$ () A$)
(declare-fun t$ () A_tree$)
(declare-fun u$ () A_tree$)
(declare-fun uu$ (A_set$) A_bool_fun$)
(declare-fun uua$ (A_tree$ A$) A_nat_fun$)
(declare-fun w_a$ () Nat$)
(declare-fun w_b$ () Nat$)
(declare-fun cost$ (A_tree$) Nat$)
(declare-fun freq$ (A_tree$) A_nat_fun$)
(declare-fun less$ (Nat$) Nat_bool_fun$)
(declare-fun plus$ (Nat$) Nat_nat_fun$)
(declare-fun zero$ () Nat$)
(declare-fun depth$ (A_tree$ A$) Nat$)
(declare-fun height$ (A_tree$) Nat$)
(declare-fun member$ (A$ A_set$) Bool)
(declare-fun minima$ (A_tree$) A_a_bool_fun_fun$)
(declare-fun weight$ (A_tree$) Nat$)
(declare-fun collect$ (A_bool_fun$) A_set$)
(declare-fun fun_app$ (A_bool_fun$ A$) Bool)
(declare-fun less_eq$ (Nat$) Nat_bool_fun$)
(declare-fun optimum$ (A_tree$) Bool)
(declare-fun sibling$ (A_tree$ A$) A$)
(declare-fun alphabet$ (A_tree$) A_set$)
(declare-fun fun_app$a (A_nat_fun$ A$) Nat$)
(declare-fun fun_app$b (Nat_nat_fun$ Nat$) Nat$)
(declare-fun fun_app$c (Nat_bool_fun$ Nat$) Bool)
(declare-fun fun_app$d (A_a_bool_fun_fun$ A$) A_bool_fun$)
(declare-fun fun_app$e (A_a_tree_fun$ A$) A_tree$)
(declare-fun fun_app$f (Nat_nat_bool_fun_fun$ Nat$) Nat_bool_fun$)
(declare-fun swapSyms$ (A_tree$ A$) A_a_tree_fun$)
(declare-fun splitLeaf$ (A_tree$ Nat$ A$ Nat$ A$) A_tree$)
(declare-fun consistent$ (A_tree$) Bool)
(declare-fun uniteTrees$ (A_tree$ A_tree$) A_tree$)
(declare-fun cachedWeight$ (A_tree$) Nat$)
(declare-fun mergeSibling$ (A_tree$ A$) A_tree$)
(declare-fun swapFourSyms$ (A_tree$ A$ A$ A$ A$) A_tree$)
(assert (forall ((?v0 A_set$) (?v1 A$)) (! (= (fun_app$ (uu$ ?v0) ?v1) (member$ ?v1 ?v0)) :pattern ((fun_app$ (uu$ ?v0) ?v1)))))
(assert (forall ((?v0 A_tree$) (?v1 A$) (?v2 A$)) (! (= (fun_app$a (uua$ ?v0 ?v1) ?v2) (ite (= ?v2 ?v1) (fun_app$b (plus$ (fun_app$a (freq$ ?v0) ?v1)) (fun_app$a (freq$ ?v0) (sibling$ ?v0 ?v1))) (ite (= ?v2 (sibling$ ?v0 ?v1)) zero$ (fun_app$a (freq$ ?v0) ?v2)))) :pattern ((fun_app$a (uua$ ?v0 ?v1) ?v2)))))
(assert (not (= (fun_app$b (plus$ (fun_app$b (plus$ (cost$ (mergeSibling$ (swapFourSyms$ u$ a$ b$ c$ (sibling$ u$ c$)) a$))) (fun_app$a (freq$ (swapFourSyms$ u$ a$ b$ c$ (sibling$ u$ c$))) a$))) (fun_app$a (freq$ (swapFourSyms$ u$ a$ b$ c$ (sibling$ u$ c$))) (sibling$ (swapFourSyms$ u$ a$ b$ c$ (sibling$ u$ c$)) a$))) (cost$ (swapFourSyms$ u$ a$ b$ c$ (sibling$ u$ c$))))))
(assert (member$ a$ (alphabet$ t$)))
(assert (not (member$ b$ (alphabet$ t$))))
(assert (consistent$ u$))
(assert (forall ((?v0 A$)) (=> (member$ ?v0 (alphabet$ t$)) (and (fun_app$c (less_eq$ w_a$) (fun_app$a (freq$ t$) ?v0)) (fun_app$c (less_eq$ w_b$) (fun_app$a (freq$ t$) ?v0)))) ))
(assert (member$ c$ (alphabet$ u$)))
(assert (= (fun_app$a (freq$ t$) a$) (fun_app$b (plus$ w_a$) w_b$)))
(assert (= (sibling$ (swapFourSyms$ u$ a$ b$ c$ (sibling$ u$ c$)) a$) b$))
(assert (not (= a$ b$)))
(assert (consistent$ (swapFourSyms$ u$ a$ b$ c$ (sibling$ u$ c$))))
(assert (not (= (sibling$ u$ c$) c$)))
(assert (member$ a$ (alphabet$ u$)))
(assert (member$ b$ (alphabet$ u$)))
(assert (member$ (sibling$ u$ c$) (alphabet$ u$)))
(assert (= (freq$ (swapFourSyms$ u$ a$ b$ c$ (sibling$ u$ c$))) (freq$ u$)))
(assert (= (alphabet$ (swapFourSyms$ u$ a$ b$ c$ (sibling$ u$ c$))) (alphabet$ u$)))
(assert (consistent$ (mergeSibling$ (swapFourSyms$ u$ a$ b$ c$ (sibling$ u$ c$)) a$)))
(assert (= (freq$ (mergeSibling$ (swapFourSyms$ u$ a$ b$ c$ (sibling$ u$ c$)) a$)) (freq$ t$)))
(assert (= (alphabet$ (mergeSibling$ (swapFourSyms$ u$ a$ b$ c$ (sibling$ u$ c$)) a$)) (alphabet$ t$)))
(assert (fun_app$c (less_eq$ (fun_app$b (plus$ (fun_app$b (plus$ (cost$ t$)) w_a$)) w_b$)) (fun_app$b (plus$ (fun_app$b (plus$ (cost$ (mergeSibling$ (swapFourSyms$ u$ a$ b$ c$ (sibling$ u$ c$)) a$))) w_a$)) w_b$)))
(assert (= (freq$ (splitLeaf$ t$ w_a$ a$ w_b$ b$)) (freq$ u$)))
(assert (forall ((?v0 A_tree$) (?v1 A$)) (=> (and (consistent$ ?v0) (not (= (sibling$ ?v0 ?v1) ?v1))) (= (fun_app$b (plus$ (fun_app$b (plus$ (cost$ (mergeSibling$ ?v0 ?v1))) (fun_app$a (freq$ ?v0) ?v1))) (fun_app$a (freq$ ?v0) (sibling$ ?v0 ?v1))) (cost$ ?v0))) ))
(assert (forall ((?v0 A_tree$) (?v1 A$)) (=> (consistent$ ?v0) (= (sibling$ ?v0 (sibling$ ?v0 ?v1)) ?v1)) ))
(assert (forall ((?v0 A$) (?v1 A_tree$) (?v2 A$) (?v3 A$) (?v4 A$)) (=> (and (member$ ?v0 (alphabet$ ?v1)) (and (member$ ?v2 (alphabet$ ?v1)) (and (member$ ?v3 (alphabet$ ?v1)) (member$ ?v4 (alphabet$ ?v1))))) (= (alphabet$ (swapFourSyms$ ?v1 ?v0 ?v2 ?v3 ?v4)) (alphabet$ ?v1))) ))
(assert (forall ((?v0 A$) (?v1 A_tree$)) (! (=> (not (member$ ?v0 (alphabet$ ?v1))) (= (mergeSibling$ ?v1 ?v0) ?v1)) :pattern ((mergeSibling$ ?v1 ?v0)))))
(assert (fun_app$c (less_eq$ (cost$ (splitLeaf$ t$ w_a$ a$ w_b$ b$))) (fun_app$b (plus$ (fun_app$b (plus$ (cost$ (mergeSibling$ (swapFourSyms$ u$ a$ b$ c$ (sibling$ u$ c$)) a$))) w_a$)) w_b$)))
(assert (forall ((?v0 A$) (?v1 A_tree$)) (! (=> (not (member$ ?v0 (alphabet$ ?v1))) (= (sibling$ ?v1 ?v0) ?v0)) :pattern ((sibling$ ?v1 ?v0)))))
(assert (= (alphabet$ (splitLeaf$ t$ w_a$ a$ w_b$ b$)) (alphabet$ u$)))
(assert (= (cost$ (splitLeaf$ t$ w_a$ a$ w_b$ b$)) (fun_app$b (plus$ (fun_app$b (plus$ (cost$ t$)) w_a$)) w_b$)))
(assert (forall ((?v0 Nat$) (?v1 Nat$) (?v2 Nat$)) (= (= (fun_app$b (plus$ ?v0) ?v1) (fun_app$b (plus$ ?v2) ?v1)) (= ?v0 ?v2)) ))
(assert (forall ((?v0 Nat$) (?v1 Nat$) (?v2 Nat$)) (= (= (fun_app$b (plus$ ?v0) ?v1) (fun_app$b (plus$ ?v0) ?v2)) (= ?v1 ?v2)) ))
(assert (optimum$ t$))
(assert (consistent$ t$))
(assert (fun_app$c (less_eq$ w_a$) w_b$))
(assert (forall ((?v0 Nat$) (?v1 Nat$) (?v2 Nat$)) (= (fun_app$c (less_eq$ (fun_app$b (plus$ ?v0) ?v1)) (fun_app$b (plus$ ?v0) ?v2)) (fun_app$c (less_eq$ ?v1) ?v2)) ))
(assert (forall ((?v0 Nat$) (?v1 Nat$) (?v2 Nat$)) (= (fun_app$c (less_eq$ (fun_app$b (plus$ ?v0) ?v1)) (fun_app$b (plus$ ?v2) ?v1)) (fun_app$c (less_eq$ ?v0) ?v2)) ))
(assert (forall ((?v0 A$) (?v1 A_tree$) (?v2 Nat$) (?v3 Nat$) (?v4 A$)) (! (=> (not (member$ ?v0 (alphabet$ ?v1))) (= (splitLeaf$ ?v1 ?v2 ?v0 ?v3 ?v4) ?v1)) :pattern ((splitLeaf$ ?v1 ?v2 ?v0 ?v3 ?v4)))))
(assert (forall ((?v0 A_tree$) (?v1 A$) (?v2 A$) (?v3 A$) (?v4 A$)) (=> (and (consistent$ ?v0) (and (member$ ?v1 (alphabet$ ?v0)) (and (member$ ?v2 (alphabet$ ?v0)) (and (member$ ?v3 (alphabet$ ?v0)) (member$ ?v4 (alphabet$ ?v0)))))) (= (freq$ (swapFourSyms$ ?v0 ?v1 ?v2 ?v3 ?v4)) (freq$ ?v0))) ))
(assert (forall ((?v0 A_tree$) (?v1 A$) (?v2 Nat$) (?v3 Nat$) (?v4 A$)) (=> (and (consistent$ ?v0) (and (member$ ?v1 (alphabet$ ?v0)) (= (fun_app$a (freq$ ?v0) ?v1) (fun_app$b (plus$ ?v2) ?v3)))) (= (cost$ (splitLeaf$ ?v0 ?v2 ?v1 ?v3 ?v4)) (fun_app$b (plus$ (fun_app$b (plus$ (cost$ ?v0)) ?v2)) ?v3))) ))
(assert (forall ((?v0 A_tree$) (?v1 A$) (?v2 Nat$) (?v3 A$) (?v4 Nat$)) (=> (and (consistent$ ?v0) (not (member$ ?v1 (alphabet$ ?v0)))) (consistent$ (splitLeaf$ ?v0 ?v2 ?v3 ?v4 ?v1))) ))
(assert (forall ((?v0 A_tree$)) (exists ((?v1 A$)) (member$ ?v1 (alphabet$ ?v0)) ) ))
(assert (forall ((?v0 Nat$) (?v1 Nat$) (?v2 Nat$)) (=> (fun_app$c (less_eq$ ?v0) ?v1) (fun_app$c (less_eq$ (fun_app$b (plus$ ?v2) ?v0)) (fun_app$b (plus$ ?v2) ?v1))) ))
(assert (forall ((?v0 Nat$) (?v1 Nat$) (?v2 Nat$)) (=> (fun_app$c (less_eq$ ?v0) ?v1) (fun_app$c (less_eq$ (fun_app$b (plus$ ?v0) ?v2)) (fun_app$b (plus$ ?v1) ?v2))) ))
(assert (forall ((?v0 Nat$) (?v1 Nat$) (?v2 Nat$) (?v3 Nat$)) (=> (and (fun_app$c (less_eq$ ?v0) ?v1) (fun_app$c (less_eq$ ?v2) ?v3)) (fun_app$c (less_eq$ (fun_app$b (plus$ ?v0) ?v2)) (fun_app$b (plus$ ?v1) ?v3))) ))
(assert (forall ((?v0 Nat$) (?v1 Nat$) (?v2 Nat$)) (=> (fun_app$c (less_eq$ (fun_app$b (plus$ ?v0) ?v1)) (fun_app$b (plus$ ?v0) ?v2)) (fun_app$c (less_eq$ ?v1) ?v2)) ))
(assert (forall ((?v0 Nat$) (?v1 Nat$) (?v2 Nat$)) (=> (fun_app$c (less_eq$ (fun_app$b (plus$ ?v0) ?v1)) (fun_app$b (plus$ ?v2) ?v1)) (fun_app$c (less_eq$ ?v0) ?v2)) ))
(assert (forall ((?v0 A_bool_fun$) (?v1 A_bool_fun$)) (=> (forall ((?v2 A$)) (= (fun_app$ ?v0 ?v2) (fun_app$ ?v1 ?v2)) ) (= (collect$ ?v0) (collect$ ?v1))) ))
(assert (forall ((?v0 A_set$)) (= (collect$ (uu$ ?v0)) ?v0) ))
(assert (forall ((?v0 A$) (?v1 A_bool_fun$)) (= (member$ ?v0 (collect$ ?v1)) (fun_app$ ?v1 ?v0)) ))
(assert (forall ((?v0 Nat$) (?v1 Nat$) (?v2 Nat$) (?v3 Nat$)) (=> (and (fun_app$c (less_eq$ ?v0) ?v1) (fun_app$c (less_eq$ ?v2) ?v3)) (fun_app$c (less_eq$ (fun_app$b (plus$ ?v0) ?v2)) (fun_app$b (plus$ ?v1) ?v3))) ))
(assert (forall ((?v0 Nat$) (?v1 Nat$) (?v2 Nat$) (?v3 Nat$)) (=> (and (fun_app$c (less_eq$ ?v0) ?v1) (= ?v2 ?v3)) (fun_app$c (less_eq$ (fun_app$b (plus$ ?v0) ?v2)) (fun_app$b (plus$ ?v1) ?v3))) ))
(assert (forall ((?v0 Nat$) (?v1 Nat$) (?v2 Nat$) (?v3 Nat$)) (=> (and (= ?v0 ?v1) (fun_app$c (less_eq$ ?v2) ?v3)) (fun_app$c (less_eq$ (fun_app$b (plus$ ?v0) ?v2)) (fun_app$b (plus$ ?v1) ?v3))) ))
(assert (forall ((?v0 Nat$) (?v1 Nat$)) (= (fun_app$c (less_eq$ ?v0) ?v1) (exists ((?v2 Nat$)) (= ?v1 (fun_app$b (plus$ ?v0) ?v2)) )) ))
(assert (forall ((?v0 Nat$) (?v1 Nat$) (?v2 Nat$) (?v3 Nat$)) (=> (and (= ?v0 ?v1) (= ?v2 ?v3)) (= (fun_app$b (plus$ ?v0) ?v2) (fun_app$b (plus$ ?v1) ?v3))) ))
(assert (forall ((?v0 Nat$) (?v1 Nat$) (?v2 Nat$)) (=> (= (fun_app$b (plus$ ?v0) ?v1) (fun_app$b (plus$ ?v0) ?v2)) (= ?v1 ?v2)) ))
(assert (forall ((?v0 Nat$) (?v1 Nat$) (?v2 Nat$)) (=> (= (fun_app$b (plus$ ?v0) ?v1) (fun_app$b (plus$ ?v2) ?v1)) (= ?v0 ?v2)) ))
(assert (forall ((?v0 Nat$) (?v1 Nat$)) (= (fun_app$b (plus$ ?v0) ?v1) (fun_app$b (plus$ ?v1) ?v0)) ))
(assert (forall ((?v0 Nat$) (?v1 Nat$) (?v2 Nat$)) (= (fun_app$b (plus$ ?v0) (fun_app$b (plus$ ?v1) ?v2)) (fun_app$b (plus$ ?v1) (fun_app$b (plus$ ?v0) ?v2))) ))
(assert (forall ((?v0 Nat$) (?v1 Nat$) (?v2 Nat$)) (= (fun_app$b (plus$ (fun_app$b (plus$ ?v0) ?v1)) ?v2) (fun_app$b (plus$ ?v0) (fun_app$b (plus$ ?v1) ?v2))) ))
(assert (forall ((?v0 Nat$) (?v1 Nat$) (?v2 Nat$)) (= (fun_app$b (plus$ (fun_app$b (plus$ ?v0) ?v1)) ?v2) (fun_app$b (plus$ ?v0) (fun_app$b (plus$ ?v1) ?v2))) ))
(assert (forall ((?v0 A_tree$) (?v1 A$)) (=> (not (= (sibling$ ?v0 ?v1) ?v1)) (member$ (sibling$ ?v0 ?v1) (alphabet$ ?v0))) ))
(assert (forall ((?v0 A$) (?v1 A_tree$)) (=> (member$ ?v0 (alphabet$ ?v1)) (member$ (sibling$ ?v1 ?v0) (alphabet$ ?v1))) ))
(assert (forall ((?v0 A_tree$) (?v1 A$) (?v2 A$) (?v3 A$)) (=> (and (consistent$ ?v0) (and (member$ ?v1 (alphabet$ ?v0)) (and (member$ ?v2 (alphabet$ ?v0)) (and (member$ ?v3 (alphabet$ ?v0)) (and (not (= ?v1 ?v2)) (not (= (sibling$ ?v0 ?v3) ?v3))))))) (= (sibling$ (swapFourSyms$ ?v0 ?v1 ?v2 ?v3 (sibling$ ?v0 ?v3)) ?v1) ?v2)) ))
(assert (forall ((?v0 A_tree$) (?v1 A$) (?v2 A$)) (=> (and (consistent$ ?v0) (= (sibling$ ?v0 ?v1) ?v2)) (= (sibling$ ?v0 ?v2) ?v1)) ))
(assert (forall ((?v0 A_tree$) (?v1 A$)) (=> (consistent$ ?v0) (consistent$ (mergeSibling$ ?v0 ?v1))) ))
(assert (forall ((?v0 A_tree$) (?v1 A$) (?v2 A$) (?v3 A$) (?v4 A$)) (=> (consistent$ ?v0) (consistent$ (swapFourSyms$ ?v0 ?v1 ?v2 ?v3 ?v4))) ))
(assert (forall ((?v0 A_tree$)) (= (optimum$ ?v0) (forall ((?v1 A_tree$)) (=> (and (consistent$ ?v1) (and (= (alphabet$ ?v0) (alphabet$ ?v1)) (= (freq$ ?v0) (freq$ ?v1)))) (fun_app$c (less_eq$ (cost$ ?v0)) (cost$ ?v1))) )) ))
(assert (forall ((?v0 Nat$) (?v1 Nat$) (?v2 Nat$)) (= (fun_app$c (less_eq$ (fun_app$b (plus$ ?v0) ?v1)) (fun_app$b (plus$ ?v0) ?v2)) (fun_app$c (less_eq$ ?v1) ?v2)) ))
(assert (not (= (height$ (splitLeaf$ t$ w_a$ a$ w_b$ b$)) zero$)))
(assert (forall ((?v0 A_tree$) (?v1 A$) (?v2 A$)) (= (fun_app$ (fun_app$d (minima$ ?v0) ?v1) ?v2) (and (member$ ?v1 (alphabet$ ?v0)) (and (member$ ?v2 (alphabet$ ?v0)) (and (not (= ?v1 ?v2)) (and (fun_app$c (less_eq$ (fun_app$a (freq$ ?v0) ?v1)) (fun_app$a (freq$ ?v0) ?v2)) (forall ((?v3 A$)) (=> (and (member$ ?v3 (alphabet$ ?v0)) (and (not (= ?v3 ?v1)) (not (= ?v3 ?v2)))) (and (fun_app$c (less_eq$ (fun_app$a (freq$ ?v0) ?v1)) (fun_app$a (freq$ ?v0) ?v3)) (fun_app$c (less_eq$ (fun_app$a (freq$ ?v0) ?v2)) (fun_app$a (freq$ ?v0) ?v3)))) )))))) ))
(assert (forall ((?v0 Nat$)) (fun_app$c (less_eq$ ?v0) ?v0) ))
(assert (forall ((?v0 A_tree$) (?v1 A$) (?v2 Nat$) (?v3 Nat$) (?v4 A$)) (=> (and (consistent$ ?v0) (and (member$ ?v1 (alphabet$ ?v0)) (= (fun_app$a (freq$ ?v0) ?v1) (fun_app$b (plus$ ?v2) ?v3)))) (= (weight$ (splitLeaf$ ?v0 ?v2 ?v1 ?v3 ?v4)) (weight$ ?v0))) ))
(assert (forall ((?v0 A_tree$) (?v1 A$) (?v2 A$)) (=> (and (consistent$ ?v0) (and (member$ ?v1 (alphabet$ ?v0)) (member$ ?v2 (alphabet$ ?v0)))) (= (freq$ (fun_app$e (swapSyms$ ?v0 ?v1) ?v2)) (freq$ ?v0))) ))
(assert (forall ((?v0 A_tree$) (?v1 A$)) (=> (and (consistent$ ?v0) (and (member$ ?v1 (alphabet$ ?v0)) (not (= (sibling$ ?v0 ?v1) ?v1)))) (= (freq$ (mergeSibling$ ?v0 ?v1)) (uua$ ?v0 ?v1))) ))
(assert (forall ((?v0 A_tree$) (?v1 A_tree$) (?v2 A$)) (= (fun_app$a (freq$ (uniteTrees$ ?v0 ?v1)) ?v2) (fun_app$b (plus$ (fun_app$a (freq$ ?v0) ?v2)) (fun_app$a (freq$ ?v1) ?v2))) ))
(assert (forall ((?v0 Nat$)) (= (fun_app$b (plus$ ?v0) zero$) ?v0) ))
(assert (forall ((?v0 Nat$)) (= (fun_app$b (plus$ zero$) ?v0) ?v0) ))
(assert (forall ((?v0 Nat$) (?v1 Nat$)) (= (= (fun_app$b (plus$ ?v0) ?v1) zero$) (and (= ?v0 zero$) (= ?v1 zero$))) ))
(assert (forall ((?v0 Nat$)) (! (= (fun_app$b (plus$ ?v0) zero$) ?v0) :pattern ((plus$ ?v0)))))
(assert (forall ((?v0 Nat$)) (fun_app$c (less_eq$ zero$) ?v0) ))
(assert (forall ((?v0 Nat$)) (! (= (fun_app$c (less_eq$ ?v0) zero$) (= ?v0 zero$)) :pattern ((less_eq$ ?v0)))))
(assert (forall ((?v0 A_tree$) (?v1 A$)) (= (weight$ (mergeSibling$ ?v0 ?v1)) (weight$ ?v0)) ))
(assert (forall ((?v0 A$) (?v1 A_tree$) (?v2 A$)) (=> (and (member$ ?v0 (alphabet$ ?v1)) (member$ ?v2 (alphabet$ ?v1))) (= (alphabet$ (fun_app$e (swapSyms$ ?v1 ?v0) ?v2)) (alphabet$ ?v1))) ))
(assert (forall ((?v0 A_tree$) (?v1 A$)) (! (=> (consistent$ ?v0) (= (fun_app$e (swapSyms$ ?v0 ?v1) ?v1) ?v0)) :pattern ((swapSyms$ ?v0 ?v1)))))
(assert (= (depth$ u$ c$) (height$ u$)))
(assert (forall ((?v0 A$) (?v1 A_tree$)) (! (=> (not (member$ ?v0 (alphabet$ ?v1))) (= (fun_app$a (freq$ ?v1) ?v0) zero$)) :pattern ((fun_app$a (freq$ ?v1) ?v0)))))
(assert (forall ((?v0 A_tree$) (?v1 A$)) (! (=> (= (height$ ?v0) zero$) (= (sibling$ ?v0 ?v1) ?v1)) :pattern ((sibling$ ?v0 ?v1)))))
(assert (forall ((?v0 A_tree$)) (! (=> (= (height$ ?v0) zero$) (= (cost$ ?v0) zero$)) :pattern ((cost$ ?v0)))))
(assert (forall ((?v0 A_tree$) (?v1 A$) (?v2 A$)) (=> (and (consistent$ ?v0) (and (not (= (sibling$ ?v0 ?v1) ?v2)) (and (not (= (sibling$ ?v0 ?v1) ?v1)) (not (= ?v2 ?v1))))) (= (sibling$ (fun_app$e (swapSyms$ ?v0 ?v2) ?v1) (sibling$ ?v0 ?v1)) ?v2)) ))
(assert (forall ((?v0 A_tree$) (?v1 A$) (?v2 A$)) (=> (and (consistent$ ?v0) (and (not (= (sibling$ ?v0 ?v1) ?v1)) (not (= ?v2 ?v1)))) (= (sibling$ (fun_app$e (swapSyms$ ?v0 ?v2) (sibling$ ?v0 ?v1)) ?v2) ?v1)) ))
(assert (forall ((?v0 Nat$)) (= (= zero$ ?v0) (= ?v0 zero$)) ))
(assert (forall ((?v0 Nat$)) (=> (and (=> (= ?v0 zero$) false) (=> (not (= ?v0 zero$)) false)) false) ))
(assert (forall ((?v0 Nat$)) (! (= (fun_app$b (plus$ zero$) ?v0) ?v0) :pattern ((fun_app$b (plus$ zero$) ?v0)))))
(assert (forall ((?v0 Nat$) (?v1 Nat$)) (=> (= (fun_app$b (plus$ ?v0) ?v1) ?v0) (= ?v1 zero$)) ))
(assert (forall ((?v0 Nat$)) (! (= (fun_app$c (less_eq$ zero$) ?v0) true) :pattern ((fun_app$c (less_eq$ zero$) ?v0)))))
(assert (forall ((?v0 Nat$)) (= (fun_app$b (plus$ ?v0) zero$) ?v0) ))
(assert (forall ((?v0 Nat$)) (= (fun_app$b (plus$ zero$) ?v0) ?v0) ))
(assert (forall ((?v0 A_tree$) (?v1 A$) (?v2 A$)) (=> (consistent$ ?v0) (consistent$ (fun_app$e (swapSyms$ ?v0 ?v1) ?v2))) ))
(assert (forall ((?v0 Nat$) (?v1 Nat$)) (=> (and (fun_app$c (less_eq$ ?v0) zero$) (fun_app$c (less_eq$ ?v1) zero$)) (fun_app$c (less_eq$ (fun_app$b (plus$ ?v0) ?v1)) zero$)) ))
(assert (forall ((?v0 Nat$) (?v1 Nat$) (?v2 Nat$)) (=> (and (fun_app$c (less_eq$ zero$) ?v0) (fun_app$c (less_eq$ ?v1) ?v2)) (fun_app$c (less_eq$ ?v1) (fun_app$b (plus$ ?v2) ?v0))) ))
(assert (forall ((?v0 Nat$) (?v1 Nat$) (?v2 Nat$)) (=> (and (fun_app$c (less_eq$ zero$) ?v0) (fun_app$c (less_eq$ ?v1) ?v2)) (fun_app$c (less_eq$ ?v1) (fun_app$b (plus$ ?v0) ?v2))) ))
(assert (forall ((?v0 Nat$) (?v1 Nat$)) (=> (and (fun_app$c (less_eq$ zero$) ?v0) (fun_app$c (less_eq$ zero$) ?v1)) (= (= (fun_app$b (plus$ ?v0) ?v1) zero$) (and (= ?v0 zero$) (= ?v1 zero$)))) ))
(assert (forall ((?v0 Nat$) (?v1 Nat$)) (=> (and (fun_app$c (less_eq$ zero$) ?v0) (fun_app$c (less_eq$ zero$) ?v1)) (fun_app$c (less_eq$ zero$) (fun_app$b (plus$ ?v0) ?v1))) ))
(assert (forall ((?v0 A_tree$) (?v1 A$) (?v2 A$) (?v3 A$) (?v4 A$)) (! (= (swapFourSyms$ ?v0 ?v1 ?v2 ?v3 ?v4) (ite (= ?v1 ?v4) (fun_app$e (swapSyms$ ?v0 ?v2) ?v3) (ite (= ?v2 ?v3) (fun_app$e (swapSyms$ ?v0 ?v1) ?v4) (fun_app$e (swapSyms$ (fun_app$e (swapSyms$ ?v0 ?v1) ?v3) ?v2) ?v4)))) :pattern ((swapFourSyms$ ?v0 ?v1 ?v2 ?v3 ?v4)))))
(assert (forall ((?v0 Nat$)) (fun_app$c (less_eq$ ?v0) ?v0) ))
(assert (forall ((?v0 Nat$) (?v1 Nat$)) (or (fun_app$c (less_eq$ ?v0) ?v1) (fun_app$c (less_eq$ ?v1) ?v0)) ))
(assert (forall ((?v0 Nat$) (?v1 Nat$)) (! (=> (fun_app$c (less_eq$ ?v0) ?v1) (= (fun_app$c (less_eq$ ?v1) ?v0) (= ?v1 ?v0))) :pattern ((fun_app$c (less_eq$ ?v1) ?v0)))))
(assert (forall ((?v0 Nat$) (?v1 Nat$) (?v2 Nat$)) (=> (and (fun_app$c (less_eq$ ?v0) ?v1) (fun_app$c (less_eq$ ?v1) ?v2)) (fun_app$c (less_eq$ ?v0) ?v2)) ))
(assert (forall ((?v0 Nat$) (?v1 Nat$) (?v2 Nat$)) (=> (and (fun_app$c (less_eq$ ?v0) ?v1) (fun_app$c (less_eq$ ?v1) ?v2)) (fun_app$c (less_eq$ ?v0) ?v2)) ))
(assert (forall ((?v0 Nat$) (?v1 Nat$) (?v2 Nat$)) (=> (and (fun_app$c (less_eq$ ?v0) ?v1) (fun_app$c (less_eq$ ?v2) ?v0)) (fun_app$c (less_eq$ ?v2) ?v1)) ))
(assert (forall ((?v0 Nat$) (?v1 Nat$)) (=> (and (fun_app$c (less_eq$ ?v0) ?v1) (fun_app$c (less_eq$ ?v1) ?v0)) (= ?v0 ?v1)) ))
(assert (forall ((?v0 Nat$) (?v1 Nat$)) (=> (and (fun_app$c (less_eq$ ?v0) ?v1) (fun_app$c (less_eq$ ?v1) ?v0)) (= ?v0 ?v1)) ))
(assert (forall ((?v0 Nat$) (?v1 Nat$)) (=> (and (fun_app$c (less_eq$ ?v0) ?v1) (fun_app$c (less_eq$ ?v1) ?v0)) (= ?v1 ?v0)) ))
(assert (forall ((?v0 Nat$) (?v1 Nat_nat_fun$) (?v2 Nat$) (?v3 Nat$)) (=> (and (fun_app$c (less_eq$ ?v0) (fun_app$b ?v1 ?v2)) (and (fun_app$c (less_eq$ ?v2) ?v3) (forall ((?v4 Nat$) (?v5 Nat$)) (=> (fun_app$c (less_eq$ ?v4) ?v5) (fun_app$c (less_eq$ (fun_app$b ?v1 ?v4)) (fun_app$b ?v1 ?v5))) ))) (fun_app$c (less_eq$ ?v0) (fun_app$b ?v1 ?v3))) ))
(assert (forall ((?v0 Nat$) (?v1 Nat$) (?v2 Nat_nat_fun$) (?v3 Nat$)) (=> (and (fun_app$c (less_eq$ ?v0) ?v1) (and (fun_app$c (less_eq$ (fun_app$b ?v2 ?v1)) ?v3) (forall ((?v4 Nat$) (?v5 Nat$)) (=> (fun_app$c (less_eq$ ?v4) ?v5) (fun_app$c (less_eq$ (fun_app$b ?v2 ?v4)) (fun_app$b ?v2 ?v5))) ))) (fun_app$c (less_eq$ (fun_app$b ?v2 ?v0)) ?v3)) ))
(assert (forall ((?v0 Nat$) (?v1 Nat$) (?v2 Nat$)) (=> (and (fun_app$c (less_eq$ ?v0) ?v1) (= ?v1 ?v2)) (fun_app$c (less_eq$ ?v0) ?v2)) ))
(assert (forall ((?v0 Nat$) (?v1 Nat$) (?v2 Nat_nat_fun$) (?v3 Nat$)) (=> (and (fun_app$c (less_eq$ ?v0) ?v1) (and (= (fun_app$b ?v2 ?v1) ?v3) (forall ((?v4 Nat$) (?v5 Nat$)) (=> (fun_app$c (less_eq$ ?v4) ?v5) (fun_app$c (less_eq$ (fun_app$b ?v2 ?v4)) (fun_app$b ?v2 ?v5))) ))) (fun_app$c (less_eq$ (fun_app$b ?v2 ?v0)) ?v3)) ))
(assert (forall ((?v0 Nat$) (?v1 Nat$)) (=> (= ?v0 ?v1) (fun_app$c (less_eq$ ?v0) ?v1)) ))
(assert (forall ((?v0 Nat$) (?v1 Nat$) (?v2 Nat$)) (=> (and (= ?v0 ?v1) (fun_app$c (less_eq$ ?v1) ?v2)) (fun_app$c (less_eq$ ?v0) ?v2)) ))
(assert (forall ((?v0 Nat$) (?v1 Nat_nat_fun$) (?v2 Nat$) (?v3 Nat$)) (=> (and (= ?v0 (fun_app$b ?v1 ?v2)) (and (fun_app$c (less_eq$ ?v2) ?v3) (forall ((?v4 Nat$) (?v5 Nat$)) (=> (fun_app$c (less_eq$ ?v4) ?v5) (fun_app$c (less_eq$ (fun_app$b ?v1 ?v4)) (fun_app$b ?v1 ?v5))) ))) (fun_app$c (less_eq$ ?v0) (fun_app$b ?v1 ?v3))) ))
(assert (forall ((?v0 Nat_nat_bool_fun_fun$) (?v1 Nat$) (?v2 Nat$)) (=> (and (forall ((?v3 Nat$) (?v4 Nat$)) (=> (fun_app$c (less_eq$ ?v3) ?v4) (fun_app$c (fun_app$f ?v0 ?v3) ?v4)) ) (forall ((?v3 Nat$) (?v4 Nat$)) (=> (fun_app$c (fun_app$f ?v0 ?v4) ?v3) (fun_app$c (fun_app$f ?v0 ?v3) ?v4)) )) (fun_app$c (fun_app$f ?v0 ?v1) ?v2)) ))
(assert (forall ((?v0 Nat$) (?v1 Nat$)) (=> (and (=> (fun_app$c (less_eq$ ?v0) ?v1) false) (=> (fun_app$c (less_eq$ ?v1) ?v0) false)) false) ))
(assert (forall ((?v0 Nat$) (?v1 Nat$)) (= (= ?v0 ?v1) (and (fun_app$c (less_eq$ ?v0) ?v1) (fun_app$c (less_eq$ ?v1) ?v0))) ))
(assert (forall ((?v0 Nat$) (?v1 Nat$) (?v2 Nat$)) (= (= (fun_app$b (plus$ ?v0) ?v1) (fun_app$b (plus$ ?v2) ?v1)) (= ?v0 ?v2)) ))
(assert (forall ((?v0 Nat$) (?v1 Nat$) (?v2 Nat$)) (= (= (fun_app$b (plus$ ?v0) ?v1) (fun_app$b (plus$ ?v0) ?v2)) (= ?v1 ?v2)) ))
(assert (forall ((?v0 Nat$)) (fun_app$c (less_eq$ ?v0) ?v0) ))
(assert (forall ((?v0 Nat$) (?v1 Nat$)) (or (fun_app$c (less_eq$ ?v0) ?v1) (fun_app$c (less_eq$ ?v1) ?v0)) ))
(assert (forall ((?v0 Nat$) (?v1 Nat$) (?v2 Nat$)) (=> (and (fun_app$c (less_eq$ ?v0) ?v1) (fun_app$c (less_eq$ ?v1) ?v2)) (fun_app$c (less_eq$ ?v0) ?v2)) ))
(assert (forall ((?v0 Nat$) (?v1 Nat$)) (=> (and (fun_app$c (less_eq$ ?v0) ?v1) (fun_app$c (less_eq$ ?v1) ?v0)) (= ?v0 ?v1)) ))
(assert (forall ((?v0 Nat$) (?v1 Nat$)) (=> (= ?v0 ?v1) (fun_app$c (less_eq$ ?v0) ?v1)) ))
(assert (forall ((?v0 Nat$) (?v1 Nat$)) (= (fun_app$c (less_eq$ ?v0) ?v1) (exists ((?v2 Nat$)) (= ?v1 (fun_app$b (plus$ ?v0) ?v2)) )) ))
(assert (forall ((?v0 Nat$) (?v1 Nat$) (?v2 Nat$)) (=> (and (fun_app$c (less_eq$ (fun_app$b (plus$ ?v0) ?v1)) ?v2) (=> (and (fun_app$c (less_eq$ ?v0) ?v2) (fun_app$c (less_eq$ ?v1) ?v2)) false)) false) ))
(assert (forall ((?v0 Nat$) (?v1 Nat$) (?v2 Nat$)) (=> (fun_app$c (less_eq$ (fun_app$b (plus$ ?v0) ?v1)) ?v2) (fun_app$c (less_eq$ ?v1) ?v2)) ))
(assert (forall ((?v0 Nat$) (?v1 Nat$) (?v2 Nat$)) (=> (fun_app$c (less_eq$ (fun_app$b (plus$ ?v0) ?v1)) ?v2) (fun_app$c (less_eq$ ?v0) ?v2)) ))
(assert (forall ((?v0 Nat$) (?v1 Nat$) (?v2 Nat$) (?v3 Nat$)) (=> (and (fun_app$c (less_eq$ ?v0) ?v1) (fun_app$c (less_eq$ ?v2) ?v3)) (fun_app$c (less_eq$ (fun_app$b (plus$ ?v0) ?v2)) (fun_app$b (plus$ ?v1) ?v3))) ))
(assert (forall ((?v0 Nat$) (?v1 Nat$) (?v2 Nat$)) (=> (fun_app$c (less_eq$ ?v0) ?v1) (fun_app$c (less_eq$ (fun_app$b (plus$ ?v0) ?v2)) (fun_app$b (plus$ ?v1) ?v2))) ))
(assert (forall ((?v0 Nat$) (?v1 Nat$) (?v2 Nat$)) (=> (fun_app$c (less_eq$ ?v0) ?v1) (fun_app$c (less_eq$ ?v0) (fun_app$b (plus$ ?v2) ?v1))) ))
(assert (forall ((?v0 Nat$) (?v1 Nat$) (?v2 Nat$)) (=> (fun_app$c (less_eq$ ?v0) ?v1) (fun_app$c (less_eq$ ?v0) (fun_app$b (plus$ ?v1) ?v2))) ))
(assert (forall ((?v0 Nat$) (?v1 Nat$)) (=> (fun_app$c (less_eq$ ?v0) ?v1) (exists ((?v2 Nat$)) (= ?v1 (fun_app$b (plus$ ?v0) ?v2)) )) ))
(assert (forall ((?v0 Nat$) (?v1 Nat$)) (fun_app$c (less_eq$ ?v0) (fun_app$b (plus$ ?v1) ?v0)) ))
(assert (forall ((?v0 Nat$) (?v1 Nat$)) (fun_app$c (less_eq$ ?v0) (fun_app$b (plus$ ?v0) ?v1)) ))
(assert (= (depth$ u$ (sibling$ u$ c$)) (height$ u$)))
(assert (=> (forall ((?v0 A$)) (=> (and (member$ ?v0 (alphabet$ u$)) (= (depth$ u$ ?v0) (height$ u$))) false) ) false))
(assert (exists ((?v0 A$)) (and (member$ ?v0 (alphabet$ u$)) (= (depth$ u$ ?v0) (height$ u$))) ))
(assert (fun_app$c (less$ zero$) (height$ u$)))
(assert (forall ((?v0 A_tree$)) (! (=> (= (height$ ?v0) zero$) (= (cachedWeight$ ?v0) (weight$ ?v0))) :pattern ((cachedWeight$ ?v0)))))
(assert (forall ((?v0 A_tree$) (?v1 A$) (?v2 A$) (?v3 A$) (?v4 A$)) (=> (and (consistent$ ?v0) (and (fun_app$ (fun_app$d (minima$ ?v0) ?v1) ?v2) (and (member$ ?v3 (alphabet$ ?v0)) (and (member$ ?v4 (alphabet$ ?v0)) (and (= (depth$ ?v0 ?v3) (height$ ?v0)) (and (= (depth$ ?v0 ?v4) (height$ ?v0)) (not (= ?v3 ?v4)))))))) (fun_app$c (less_eq$ (cost$ (swapFourSyms$ ?v0 ?v1 ?v2 ?v3 ?v4))) (cost$ ?v0))) ))
(assert (forall ((?v0 Nat$) (?v1 Nat$) (?v2 Nat$)) (= (fun_app$c (less$ (fun_app$b (plus$ ?v0) ?v1)) (fun_app$b (plus$ ?v0) ?v2)) (fun_app$c (less$ ?v1) ?v2)) ))
(assert (forall ((?v0 Nat$) (?v1 Nat$) (?v2 Nat$)) (= (fun_app$c (less$ (fun_app$b (plus$ ?v0) ?v1)) (fun_app$b (plus$ ?v2) ?v1)) (fun_app$c (less$ ?v0) ?v2)) ))
(assert (forall ((?v0 Nat$)) (= (not (= ?v0 zero$)) (fun_app$c (less$ zero$) ?v0)) ))
(assert (forall ((?v0 Nat$)) (= (not (fun_app$c (less$ zero$) ?v0)) (= ?v0 zero$)) ))
(assert (forall ((?v0 Nat$)) (! (= (fun_app$c (less$ ?v0) zero$) false) :pattern ((less$ ?v0)))))
(assert (forall ((?v0 Nat$) (?v1 Nat$) (?v2 Nat$)) (= (fun_app$c (less$ (fun_app$b (plus$ ?v0) ?v1)) (fun_app$b (plus$ ?v0) ?v2)) (fun_app$c (less$ ?v1) ?v2)) ))
(assert (forall ((?v0 Nat$) (?v1 Nat$)) (= (fun_app$c (less$ zero$) (fun_app$b (plus$ ?v0) ?v1)) (or (fun_app$c (less$ zero$) ?v0) (fun_app$c (less$ zero$) ?v1))) ))
(assert (forall ((?v0 A_tree$) (?v1 A$)) (=> (consistent$ ?v0) (= (depth$ ?v0 (sibling$ ?v0 ?v1)) (depth$ ?v0 ?v1))) ))
(assert (forall ((?v0 A_tree$) (?v1 A$) (?v2 A$) (?v3 A$)) (=> (and (consistent$ ?v0) (and (not (= ?v1 ?v2)) (not (= ?v1 ?v3)))) (= (depth$ (fun_app$e (swapSyms$ ?v0 ?v2) ?v3) ?v1) (depth$ ?v0 ?v1))) ))
(assert (forall ((?v0 Nat$)) (not (fun_app$c (less$ ?v0) ?v0)) ))
(assert (forall ((?v0 Nat$)) (not (fun_app$c (less$ ?v0) ?v0)) ))
(assert (forall ((?v0 Nat$)) (not (fun_app$c (less$ ?v0) ?v0)) ))
(assert (forall ((?v0 Nat$)) (exists ((?v1 Nat$)) (fun_app$c (less$ ?v0) ?v1) ) ))
(assert (forall ((?v0 Nat$) (?v1 Nat$)) (or (fun_app$c (less$ ?v0) ?v1) (or (= ?v0 ?v1) (fun_app$c (less$ ?v1) ?v0))) ))
(assert (forall ((?v0 Nat$) (?v1 Nat$)) (=> (not (fun_app$c (less$ ?v0) ?v1)) (= (not (fun_app$c (less$ ?v1) ?v0)) (= ?v1 ?v0))) ))
(assert (forall ((?v0 Nat$) (?v1 Nat$)) (=> (and (not (= ?v0 ?v1)) (and (=> (fun_app$c (less$ ?v0) ?v1) false) (=> (fun_app$c (less$ ?v1) ?v0) false))) false) ))
(assert (forall ((?v0 Nat$) (?v1 Nat$)) (=> (and (not (= ?v0 ?v1)) (and (=> (fun_app$c (less$ ?v0) ?v1) false) (=> (fun_app$c (less$ ?v1) ?v0) false))) false) ))
(assert (forall ((?v0 Nat$)) (=> (fun_app$c (less$ ?v0) ?v0) false) ))
(assert (forall ((?v0 Nat$) (?v1 Nat$)) (=> (fun_app$c (less$ ?v0) ?v1) (not (fun_app$c (less$ ?v1) ?v0))) ))
(assert (forall ((?v0 Nat$) (?v1 Nat$)) (=> (fun_app$c (less$ ?v0) ?v1) (not (= ?v1 ?v0))) ))
(assert (forall ((?v0 Nat$) (?v1 Nat$)) (=> (fun_app$c (less$ ?v0) ?v1) (not (= ?v0 ?v1))) ))
(assert (forall ((?v0 Nat$) (?v1 Nat$)) (=> (fun_app$c (less$ ?v0) ?v1) (not (= ?v0 ?v1))) ))
(assert (forall ((?v0 Nat$) (?v1 Nat$)) (=> (fun_app$c (less$ ?v0) ?v1) (not (= ?v0 ?v1))) ))
(assert (forall ((?v0 Nat$) (?v1 Nat$)) (=> (fun_app$c (less$ ?v0) ?v1) (not (= ?v1 ?v0))) ))
(assert (forall ((?v0 Nat$) (?v1 Nat$)) (=> (fun_app$c (less$ ?v0) ?v1) (= (not (fun_app$c (less$ ?v1) ?v0)) true)) ))
(assert (forall ((?v0 Nat$) (?v1 Nat$) (?v2 Bool)) (=> (fun_app$c (less$ ?v0) ?v1) (= (=> (fun_app$c (less$ ?v1) ?v0) ?v2) true)) ))
(assert (forall ((?v0 Nat$) (?v1 Nat$)) (=> (fun_app$c (less$ ?v0) ?v1) (= (= ?v0 ?v1) false)) ))
(assert (forall ((?v0 Nat$) (?v1 Nat$)) (=> (fun_app$c (less$ ?v0) ?v1) (= (= ?v1 ?v0) false)) ))
(assert (forall ((?v0 Nat$) (?v1 Nat$)) (=> (and (fun_app$c (less$ ?v0) ?v1) (fun_app$c (less$ ?v1) ?v0)) false) ))
(assert (forall ((?v0 Nat$) (?v1 Nat$)) (=> (and (fun_app$c (less$ ?v0) ?v1) (fun_app$c (less$ ?v1) ?v0)) false) ))
(assert (forall ((?v0 Nat$) (?v1 Nat$)) (=> (and (fun_app$c (less$ ?v0) ?v1) (fun_app$c (less$ ?v1) ?v0)) false) ))
(assert (forall ((?v0 Nat$) (?v1 Nat$) (?v2 Nat$)) (=> (and (fun_app$c (less$ ?v0) ?v1) (fun_app$c (less$ ?v1) ?v2)) (fun_app$c (less$ ?v0) ?v2)) ))
(assert (forall ((?v0 Nat$) (?v1 Nat$) (?v2 Nat$)) (=> (and (fun_app$c (less$ ?v0) ?v1) (fun_app$c (less$ ?v1) ?v2)) (fun_app$c (less$ ?v0) ?v2)) ))
(assert (forall ((?v0 Nat$) (?v1 Nat$) (?v2 Nat$)) (=> (and (fun_app$c (less$ ?v0) ?v1) (fun_app$c (less$ ?v2) ?v0)) (fun_app$c (less$ ?v2) ?v1)) ))
(assert (forall ((?v0 Nat$) (?v1 Nat_nat_fun$) (?v2 Nat$) (?v3 Nat$)) (=> (and (fun_app$c (less$ ?v0) (fun_app$b ?v1 ?v2)) (and (fun_app$c (less$ ?v2) ?v3) (forall ((?v4 Nat$) (?v5 Nat$)) (=> (fun_app$c (less$ ?v4) ?v5) (fun_app$c (less$ (fun_app$b ?v1 ?v4)) (fun_app$b ?v1 ?v5))) ))) (fun_app$c (less$ ?v0) (fun_app$b ?v1 ?v3))) ))
(assert (forall ((?v0 Nat$) (?v1 Nat$) (?v2 Nat_nat_fun$) (?v3 Nat$)) (=> (and (fun_app$c (less$ ?v0) ?v1) (and (fun_app$c (less$ (fun_app$b ?v2 ?v1)) ?v3) (forall ((?v4 Nat$) (?v5 Nat$)) (=> (fun_app$c (less$ ?v4) ?v5) (fun_app$c (less$ (fun_app$b ?v2 ?v4)) (fun_app$b ?v2 ?v5))) ))) (fun_app$c (less$ (fun_app$b ?v2 ?v0)) ?v3)) ))
(assert (forall ((?v0 Nat$) (?v1 Nat$) (?v2 Nat$)) (=> (and (fun_app$c (less$ ?v0) ?v1) (= ?v1 ?v2)) (fun_app$c (less$ ?v0) ?v2)) ))
(assert (forall ((?v0 Nat$) (?v1 Nat$) (?v2 Nat_nat_fun$) (?v3 Nat$)) (=> (and (fun_app$c (less$ ?v0) ?v1) (and (= (fun_app$b ?v2 ?v1) ?v3) (forall ((?v4 Nat$) (?v5 Nat$)) (=> (fun_app$c (less$ ?v4) ?v5) (fun_app$c (less$ (fun_app$b ?v2 ?v4)) (fun_app$b ?v2 ?v5))) ))) (fun_app$c (less$ (fun_app$b ?v2 ?v0)) ?v3)) ))
(assert (forall ((?v0 Nat$) (?v1 Nat$)) (=> (and (fun_app$c (less$ ?v0) ?v1) (=> (not false) (fun_app$c (less$ ?v1) ?v0))) false) ))
(assert (forall ((?v0 Nat$) (?v1 Nat$) (?v2 Nat$)) (=> (and (= ?v0 ?v1) (fun_app$c (less$ ?v1) ?v2)) (fun_app$c (less$ ?v0) ?v2)) ))
(assert (forall ((?v0 Nat$) (?v1 Nat_nat_fun$) (?v2 Nat$) (?v3 Nat$)) (=> (and (= ?v0 (fun_app$b ?v1 ?v2)) (and (fun_app$c (less$ ?v2) ?v3) (forall ((?v4 Nat$) (?v5 Nat$)) (=> (fun_app$c (less$ ?v4) ?v5) (fun_app$c (less$ (fun_app$b ?v1 ?v4)) (fun_app$b ?v1 ?v5))) ))) (fun_app$c (less$ ?v0) (fun_app$b ?v1 ?v3))) ))
(assert (forall ((?v0 Nat_bool_fun$) (?v1 Nat$)) (=> (forall ((?v2 Nat$)) (=> (forall ((?v3 Nat$)) (=> (fun_app$c (less$ ?v3) ?v2) (fun_app$c ?v0 ?v3)) ) (fun_app$c ?v0 ?v2)) ) (fun_app$c ?v0 ?v1)) ))
(assert (forall ((?v0 Nat_bool_fun$) (?v1 Nat$)) (=> (forall ((?v2 Nat$)) (=> (not (fun_app$c ?v0 ?v2)) (exists ((?v3 Nat$)) (and (fun_app$c (less$ ?v3) ?v2) (not (fun_app$c ?v0 ?v3))) )) ) (fun_app$c ?v0 ?v1)) ))
(assert (forall ((?v0 Nat_bool_fun$) (?v1 Nat$)) (=> (forall ((?v2 Nat$)) (=> (forall ((?v3 Nat$)) (=> (fun_app$c (less$ ?v3) ?v2) (fun_app$c ?v0 ?v3)) ) (fun_app$c ?v0 ?v2)) ) (fun_app$c ?v0 ?v1)) ))
(assert (forall ((?v0 Nat$) (?v1 Nat$) (?v2 Nat_nat_bool_fun_fun$)) (=> (and (=> (fun_app$c (less$ ?v0) ?v1) (fun_app$c (fun_app$f ?v2 ?v1) ?v0)) (and (=> (= ?v0 ?v1) (fun_app$c (fun_app$f ?v2 ?v1) ?v0)) (=> (fun_app$c (less$ ?v1) ?v0) (fun_app$c (fun_app$f ?v2 ?v1) ?v0)))) (fun_app$c (fun_app$f ?v2 ?v1) ?v0)) ))
(assert (forall ((?v0 Nat$) (?v1 Nat$)) (=> (and (=> (fun_app$c (less$ ?v0) ?v1) false) (and (=> (= ?v0 ?v1) false) (=> (fun_app$c (less$ ?v1) ?v0) false))) false) ))
(assert (forall ((?v0 Nat$) (?v1 Nat$)) (= (not (fun_app$c (less$ ?v0) ?v1)) (or (fun_app$c (less$ ?v1) ?v0) (= ?v0 ?v1))) ))
(assert (forall ((?v0 Nat$) (?v1 Nat$)) (= (not (= ?v0 ?v1)) (or (fun_app$c (less$ ?v0) ?v1) (fun_app$c (less$ ?v1) ?v0))) ))
(assert (forall ((?v0 Nat$) (?v1 Nat$)) (= (not (= ?v0 ?v1)) (or (fun_app$c (less$ ?v0) ?v1) (fun_app$c (less$ ?v1) ?v0))) ))
(assert (forall ((?v0 Nat$) (?v1 Nat$)) (or (fun_app$c (less_eq$ ?v0) ?v1) (fun_app$c (less$ ?v1) ?v0)) ))
(assert (forall ((?v0 Nat$) (?v1 Nat$)) (=> (not (fun_app$c (less_eq$ ?v0) ?v1)) (fun_app$c (less$ ?v1) ?v0)) ))
(assert (forall ((?v0 Nat$) (?v1 Nat$)) (=> (not (fun_app$c (less$ ?v0) ?v1)) (fun_app$c (less_eq$ ?v1) ?v0)) ))
(assert (forall ((?v0 Nat$) (?v1 Nat$)) (! (=> (not (fun_app$c (less$ ?v0) ?v1)) (= (fun_app$c (less_eq$ ?v0) ?v1) (= ?v0 ?v1))) :pattern ((fun_app$c (less_eq$ ?v0) ?v1)))))
(assert (forall ((?v0 Nat$) (?v1 Nat$)) (=> (and (not (= ?v0 ?v1)) (fun_app$c (less_eq$ ?v0) ?v1)) (fun_app$c (less$ ?v0) ?v1)) ))
(assert (forall ((?v0 Nat$) (?v1 Nat$)) (=> (fun_app$c (less_eq$ ?v0) ?v1) (not (fun_app$c (less$ ?v1) ?v0))) ))
(assert (forall ((?v0 Nat$) (?v1 Nat$)) (=> (fun_app$c (less_eq$ ?v0) ?v1) (or (fun_app$c (less$ ?v0) ?v1) (= ?v0 ?v1))) ))
(assert (forall ((?v0 Nat$) (?v1 Nat$)) (=> (fun_app$c (less_eq$ ?v0) ?v1) (= (not (fun_app$c (less$ ?v0) ?v1)) (= ?v0 ?v1))) ))
(assert (forall ((?v0 Nat$) (?v1 Nat$)) (=> (and (fun_app$c (less_eq$ ?v0) ?v1) (not (= ?v0 ?v1))) (fun_app$c (less$ ?v0) ?v1)) ))
(assert (forall ((?v0 Nat$) (?v1 Nat$) (?v2 Nat$)) (=> (and (fun_app$c (less_eq$ ?v0) ?v1) (fun_app$c (less$ ?v1) ?v2)) (fun_app$c (less$ ?v0) ?v2)) ))
(assert (forall ((?v0 Nat$) (?v1 Nat$) (?v2 Nat$)) (=> (and (fun_app$c (less_eq$ ?v0) ?v1) (fun_app$c (less$ ?v1) ?v2)) (fun_app$c (less$ ?v0) ?v2)) ))
(assert (forall ((?v0 Nat$) (?v1 Nat$) (?v2 Nat$)) (=> (and (fun_app$c (less_eq$ ?v0) ?v1) (fun_app$c (less$ ?v2) ?v0)) (fun_app$c (less$ ?v2) ?v1)) ))
(assert (forall ((?v0 Nat$) (?v1 Nat_nat_fun$) (?v2 Nat$) (?v3 Nat$)) (=> (and (fun_app$c (less_eq$ ?v0) (fun_app$b ?v1 ?v2)) (and (fun_app$c (less$ ?v2) ?v3) (forall ((?v4 Nat$) (?v5 Nat$)) (=> (fun_app$c (less$ ?v4) ?v5) (fun_app$c (less$ (fun_app$b ?v1 ?v4)) (fun_app$b ?v1 ?v5))) ))) (fun_app$c (less$ ?v0) (fun_app$b ?v1 ?v3))) ))
(assert (forall ((?v0 Nat$) (?v1 Nat$) (?v2 Nat_nat_fun$) (?v3 Nat$)) (=> (and (fun_app$c (less_eq$ ?v0) ?v1) (and (fun_app$c (less$ (fun_app$b ?v2 ?v1)) ?v3) (forall ((?v4 Nat$) (?v5 Nat$)) (=> (fun_app$c (less_eq$ ?v4) ?v5) (fun_app$c (less_eq$ (fun_app$b ?v2 ?v4)) (fun_app$b ?v2 ?v5))) ))) (fun_app$c (less$ (fun_app$b ?v2 ?v0)) ?v3)) ))
(assert (forall ((?v0 Nat$) (?v1 Nat$)) (=> (fun_app$c (less$ ?v0) ?v1) (fun_app$c (less_eq$ ?v0) ?v1)) ))
(assert (forall ((?v0 Nat$) (?v1 Nat$)) (=> (fun_app$c (less$ ?v0) ?v1) (fun_app$c (less_eq$ ?v0) ?v1)) ))
(assert (forall ((?v0 Nat$) (?v1 Nat$)) (=> (fun_app$c (less$ ?v0) ?v1) (fun_app$c (less_eq$ ?v0) ?v1)) ))
(assert (forall ((?v0 Nat$) (?v1 Nat$) (?v2 Nat$)) (=> (and (fun_app$c (less$ ?v0) ?v1) (fun_app$c (less_eq$ ?v1) ?v2)) (fun_app$c (less$ ?v0) ?v2)) ))
(assert (forall ((?v0 Nat$) (?v1 Nat$) (?v2 Nat$)) (=> (and (fun_app$c (less$ ?v0) ?v1) (fun_app$c (less_eq$ ?v1) ?v2)) (fun_app$c (less$ ?v0) ?v2)) ))
(assert (forall ((?v0 Nat$) (?v1 Nat$) (?v2 Nat$)) (=> (and (fun_app$c (less$ ?v0) ?v1) (fun_app$c (less_eq$ ?v2) ?v0)) (fun_app$c (less$ ?v2) ?v1)) ))
(assert (forall ((?v0 Nat$) (?v1 Nat_nat_fun$) (?v2 Nat$) (?v3 Nat$)) (=> (and (fun_app$c (less$ ?v0) (fun_app$b ?v1 ?v2)) (and (fun_app$c (less_eq$ ?v2) ?v3) (forall ((?v4 Nat$) (?v5 Nat$)) (=> (fun_app$c (less_eq$ ?v4) ?v5) (fun_app$c (less_eq$ (fun_app$b ?v1 ?v4)) (fun_app$b ?v1 ?v5))) ))) (fun_app$c (less$ ?v0) (fun_app$b ?v1 ?v3))) ))
(assert (forall ((?v0 Nat$) (?v1 Nat$) (?v2 Nat_nat_fun$) (?v3 Nat$)) (=> (and (fun_app$c (less$ ?v0) ?v1) (and (fun_app$c (less_eq$ (fun_app$b ?v2 ?v1)) ?v3) (forall ((?v4 Nat$) (?v5 Nat$)) (=> (fun_app$c (less$ ?v4) ?v5) (fun_app$c (less$ (fun_app$b ?v2 ?v4)) (fun_app$b ?v2 ?v5))) ))) (fun_app$c (less$ (fun_app$b ?v2 ?v0)) ?v3)) ))
(assert (forall ((?v0 Nat$) (?v1 Nat$)) (= (not (fun_app$c (less_eq$ ?v0) ?v1)) (fun_app$c (less$ ?v1) ?v0)) ))
(assert (forall ((?v0 Nat$) (?v1 Nat$)) (= (not (fun_app$c (less$ ?v0) ?v1)) (fun_app$c (less_eq$ ?v1) ?v0)) ))
(assert (forall ((?v0 Nat$) (?v1 Nat$)) (! (= (fun_app$c (less_eq$ ?v0) ?v1) (or (fun_app$c (less$ ?v0) ?v1) (= ?v0 ?v1))) :pattern ((fun_app$c (less_eq$ ?v0) ?v1)))))
(assert (forall ((?v0 Nat$) (?v1 Nat$)) (! (= (fun_app$c (less_eq$ ?v0) ?v1) (or (fun_app$c (less$ ?v0) ?v1) (= ?v0 ?v1))) :pattern ((fun_app$c (less_eq$ ?v0) ?v1)))))
(assert (forall ((?v0 Nat$) (?v1 Nat$)) (! (= (fun_app$c (less_eq$ ?v0) ?v1) (or (fun_app$c (less$ ?v0) ?v1) (= ?v1 ?v0))) :pattern ((fun_app$c (less_eq$ ?v0) ?v1)))))
(assert (forall ((?v0 Nat$) (?v1 Nat$)) (! (= (fun_app$c (less$ ?v0) ?v1) (and (fun_app$c (less_eq$ ?v0) ?v1) (not (fun_app$c (less_eq$ ?v1) ?v0)))) :pattern ((fun_app$c (less$ ?v0) ?v1)))))
(assert (forall ((?v0 Nat$) (?v1 Nat$)) (! (= (fun_app$c (less$ ?v0) ?v1) (and (fun_app$c (less_eq$ ?v0) ?v1) (not (= ?v0 ?v1)))) :pattern ((fun_app$c (less$ ?v0) ?v1)))))
(assert (forall ((?v0 Nat$) (?v1 Nat$)) (! (= (fun_app$c (less$ ?v0) ?v1) (and (fun_app$c (less_eq$ ?v0) ?v1) (not (= ?v0 ?v1)))) :pattern ((fun_app$c (less$ ?v0) ?v1)))))
(assert (forall ((?v0 Nat$) (?v1 Nat$)) (! (= (fun_app$c (less$ ?v0) ?v1) (and (fun_app$c (less_eq$ ?v0) ?v1) (not (= ?v1 ?v0)))) :pattern ((fun_app$c (less$ ?v0) ?v1)))))
(assert (forall ((?v0 Nat$) (?v1 Nat$) (?v2 Nat$)) (=> (fun_app$c (less$ ?v0) ?v1) (fun_app$c (less$ (fun_app$b (plus$ ?v2) ?v0)) (fun_app$b (plus$ ?v2) ?v1))) ))
(check-sat)
(exit)

